\ LP format - for model browsing. Use MPS format to capture full model detail.
\ Signature: 0x862d66fe36fe5ca
Minimize
  2 x_0 + x_1
Subject To
 R0: 9 x_0 + 2 x_1 >= 4
 R1: x_0 + 3 x_1 >= 9
 R2: 9 x_0 + 9 x_1 >= 8
Bounds
End
